(set-logic QF_NRA)
(set-info :source |Benchmarks generated from hycomp (https://es-static.fbk.eu/tools/hycomp/). BMC instances of non-linear hybrid automata taken from: Alessandro Cimatti, Sergio Mover, Stefano Tonetta, A quantifier-free SMT encoding of non-linear hybrid automata, FMCAD 2012 and Alessandro Cimatti, Sergio Mover, Stefano Tonetta, Quantier-free encoding of invariants for Hybrid Systems, Formal Methods in System Design. This instance solves a BMC problem of depth 1 and uses the quantifier free encoding with lemmas encoding. Contacts: Sergio Mover (mover@fbk.eu), Stefano Tonetta (tonettas@fbk.eu), Alessandro Cimatti (cimatti@fbk.eu).|)
(set-info :smt-lib-version 2.0)
(set-info :category "industrial")
(set-info :status unsat)
;; MathSAT API call trace
;; generated on Mon Mar 19 10:46:51 2012
(declare-fun b.x__AT0 () Real)
(declare-fun b.speed_y__AT1 () Real)
(declare-fun b.delta__AT1 () Real)
(declare-fun b.bool_atom__AT0 () Bool)
(declare-fun b.y__AT0 () Real)
(declare-fun b.EVENT.1__AT1 () Bool)
(declare-fun b.EVENT.0__AT1 () Bool)
(declare-fun b.counter.0__AT0 () Bool)
(declare-fun b.delta__AT0 () Real)
(declare-fun b.counter.1__AT0 () Bool)
(declare-fun b.y__AT1 () Real)
(declare-fun b.EVENT.0__AT0 () Bool)
(declare-fun b.speed_y__AT0 () Real)
(declare-fun b.event_is_timed__AT0 () Bool)
(declare-fun b.counter.3__AT0 () Bool)
(declare-fun b.speed_x__AT1 () Real)
(declare-fun b.time__AT1 () Real)
(declare-fun b.x__AT1 () Real)
(declare-fun b.event_is_timed__AT1 () Bool)
(declare-fun b.counter.0__AT1 () Bool)
(declare-fun b.EVENT.1__AT0 () Bool)
(declare-fun b.speed_loss__AT0 () Real)
(declare-fun b.counter.1__AT1 () Bool)
(declare-fun b.speed_x__AT0 () Real)
(declare-fun b.counter.2__AT1 () Bool)
(declare-fun b.time__AT0 () Real)
(declare-fun b.counter.2__AT0 () Bool)
(declare-fun b.counter.3__AT1 () Bool)
(declare-fun b.bool_atom__AT1 () Bool)
(assert (let ((.def_577 (* (- (/ 49 10)) b.speed_y__AT1)))
(let ((.def_605 (* 3.0 .def_577)))
(let ((.def_756 (* (- 1.0) .def_605)))
(let ((.def_777 (* 2.0 .def_756)))
(let ((.def_816 (* (- 1.0) .def_777)))
(let ((.def_817 (* b.delta__AT1 .def_816)))
(let ((.def_818 (* (- 50.0) .def_817)))
(let ((.def_572 (* b.delta__AT1 b.delta__AT1)))
(let ((.def_661 (* (- 7203.0) .def_572)))
(let ((.def_819 (+ .def_661 .def_818)))
(let ((.def_452 (* b.speed_y__AT1 b.speed_y__AT1)))
(let ((.def_663 (* (- 50.0) .def_452)))
(let ((.def_820 (+ .def_663 .def_819)))
(let ((.def_665 (* 490.0 b.y__AT1)))
(let ((.def_821 (+ .def_665 .def_820)))
(let ((.def_824 (<= 0.0 .def_821)))
(let ((.def_831 (not .def_824)))
(let ((.def_672 (* (- 5.0) .def_452)))
(let ((.def_673 (* 49.0 b.y__AT1)))
(let ((.def_675 (+ .def_673 .def_672)))
(let ((.def_686 (<= 0.0 .def_675)))
(let ((.def_832 (or .def_686 .def_831)))
(let ((.def_822 (<= .def_821 0.0 )))
(let ((.def_676 (<= .def_675 0.0 )))
(let ((.def_677 (not .def_676)))
(let ((.def_830 (or .def_677 .def_822)))
(let ((.def_833 (and .def_830 .def_832)))
(let ((.def_716 (<= 0.0 b.speed_y__AT1)))
(let ((.def_717 (not .def_716)))
(let ((.def_702 (* (- 49.0) b.delta__AT1)))
(let ((.def_703 (* 5.0 b.speed_y__AT1)))
(let ((.def_705 (+ .def_703 .def_702)))
(let ((.def_714 (<= 0.0 .def_705)))
(let ((.def_715 (not .def_714)))
(let ((.def_718 (or .def_715 .def_717)))
(let ((.def_719 (not .def_718)))
(let ((.def_834 (or .def_719 .def_833)))
(let ((.def_826 (not .def_822)))
(let ((.def_827 (or .def_676 .def_826)))
(let ((.def_687 (not .def_686)))
(let ((.def_825 (or .def_687 .def_824)))
(let ((.def_828 (and .def_825 .def_827)))
(let ((.def_706 (<= .def_705 0.0 )))
(let ((.def_707 (not .def_706)))
(let ((.def_700 (<= b.speed_y__AT1 0.0 )))
(let ((.def_701 (not .def_700)))
(let ((.def_708 (or .def_701 .def_707)))
(let ((.def_709 (not .def_708)))
(let ((.def_829 (or .def_709 .def_828)))
(let ((.def_835 (and .def_829 .def_834)))
(let ((.def_823 (and .def_676 .def_822)))
(let ((.def_836 (and .def_823 .def_835)))
(let ((.def_728 (and .def_714 .def_716)))
(let ((.def_725 (or .def_715 .def_716)))
(let ((.def_724 (or .def_701 .def_706)))
(let ((.def_726 (and .def_724 .def_725)))
(let ((.def_729 (and .def_726 .def_728)))
(let ((.def_723 (and .def_700 .def_706)))
(let ((.def_727 (and .def_723 .def_726)))
(let ((.def_730 (or .def_727 .def_729)))
(let ((.def_837 (and .def_730 .def_836)))
(let ((.def_778 (* b.delta__AT1 .def_777)))
(let ((.def_779 (* 50.0 .def_778)))
(let ((.def_780 (+ .def_661 .def_779)))
(let ((.def_781 (+ .def_663 .def_780)))
(let ((.def_782 (+ .def_665 .def_781)))
(let ((.def_793 (<= .def_782 0.0 )))
(let ((.def_794 (not .def_793)))
(let ((.def_810 (or .def_676 .def_794)))
(let ((.def_783 (<= 0.0 .def_782)))
(let ((.def_809 (or .def_687 .def_783)))
(let ((.def_811 (and .def_809 .def_810)))
(let ((.def_812 (or .def_709 .def_811)))
(let ((.def_784 (not .def_783)))
(let ((.def_806 (or .def_686 .def_784)))
(let ((.def_805 (or .def_677 .def_793)))
(let ((.def_807 (and .def_805 .def_806)))
(let ((.def_808 (or .def_719 .def_807)))
(let ((.def_813 (and .def_808 .def_812)))
(let ((.def_804 (and .def_686 .def_783)))
(let ((.def_814 (and .def_804 .def_813)))
(let ((.def_815 (and .def_730 .def_814)))
(let ((.def_838 (or .def_815 .def_837)))
(let ((.def_584 (* (- (/ 49 10)) b.y__AT1)))
(let ((.def_612 (* 2.0 .def_584)))
(let ((.def_764 (* (- 1.0) .def_612)))
(let ((.def_765 (* b.delta__AT1 .def_764)))
(let ((.def_766 (* (- 50.0) .def_765)))
(let ((.def_608 (* 2.0 .def_452)))
(let ((.def_760 (* (- 1.0) .def_608)))
(let ((.def_761 (* b.delta__AT1 .def_760)))
(let ((.def_762 (* (- 25.0) .def_761)))
(let ((.def_770 (+ .def_762 .def_766)))
(let ((.def_757 (* .def_572 .def_756)))
(let ((.def_758 (* (- 50.0) .def_757)))
(let ((.def_771 (+ .def_758 .def_770)))
(let ((.def_588 (* b.y__AT1 b.speed_y__AT1)))
(let ((.def_618 (* 50.0 .def_588)))
(let ((.def_772 (+ .def_618 .def_771)))
(let ((.def_573 (* b.delta__AT1 .def_572)))
(let ((.def_616 (* 2401.0 .def_573)))
(let ((.def_773 (+ .def_616 .def_772)))
(let ((.def_620 (* 25.0 b.speed_x__AT1)))
(let ((.def_774 (+ .def_620 .def_773)))
(let ((.def_787 (<= 0.0 .def_774)))
(let ((.def_798 (not .def_787)))
(let ((.def_629 (* 2.0 .def_588)))
(let ((.def_630 (+ b.speed_x__AT1 .def_629)))
(let ((.def_631 (<= 0.0 .def_630)))
(let ((.def_799 (or .def_631 .def_798)))
(let ((.def_775 (<= .def_774 0.0 )))
(let ((.def_645 (<= .def_630 0.0 )))
(let ((.def_646 (not .def_645)))
(let ((.def_797 (or .def_646 .def_775)))
(let ((.def_800 (and .def_797 .def_799)))
(let ((.def_795 (or .def_677 .def_794)))
(let ((.def_796 (not .def_795)))
(let ((.def_801 (or .def_796 .def_800)))
(let ((.def_789 (not .def_775)))
(let ((.def_790 (or .def_645 .def_789)))
(let ((.def_632 (not .def_631)))
(let ((.def_788 (or .def_632 .def_787)))
(let ((.def_791 (and .def_788 .def_790)))
(let ((.def_785 (or .def_687 .def_784)))
(let ((.def_786 (not .def_785)))
(let ((.def_792 (or .def_786 .def_791)))
(let ((.def_802 (and .def_792 .def_801)))
(let ((.def_776 (and .def_645 .def_775)))
(let ((.def_803 (and .def_776 .def_802)))
(let ((.def_839 (and .def_803 .def_838)))
(let ((.def_658 (* 2.0 .def_605)))
(let ((.def_732 (* (- 1.0) .def_658)))
(let ((.def_733 (* b.delta__AT1 .def_732)))
(let ((.def_734 (* 50.0 .def_733)))
(let ((.def_735 (+ .def_661 .def_734)))
(let ((.def_736 (+ .def_663 .def_735)))
(let ((.def_737 (+ .def_665 .def_736)))
(let ((.def_740 (<= .def_737 0.0 )))
(let ((.def_747 (not .def_740)))
(let ((.def_748 (or .def_676 .def_747)))
(let ((.def_738 (<= 0.0 .def_737)))
(let ((.def_746 (or .def_687 .def_738)))
(let ((.def_749 (and .def_746 .def_748)))
(let ((.def_750 (or .def_709 .def_749)))
(let ((.def_742 (not .def_738)))
(let ((.def_743 (or .def_686 .def_742)))
(let ((.def_741 (or .def_677 .def_740)))
(let ((.def_744 (and .def_741 .def_743)))
(let ((.def_745 (or .def_719 .def_744)))
(let ((.def_751 (and .def_745 .def_750)))
(let ((.def_739 (and .def_686 .def_738)))
(let ((.def_752 (and .def_739 .def_751)))
(let ((.def_753 (and .def_730 .def_752)))
(let ((.def_659 (* b.delta__AT1 .def_658)))
(let ((.def_660 (* (- 50.0) .def_659)))
(let ((.def_667 (+ .def_661 .def_660)))
(let ((.def_668 (+ .def_663 .def_667)))
(let ((.def_669 (+ .def_665 .def_668)))
(let ((.def_684 (<= 0.0 .def_669)))
(let ((.def_685 (not .def_684)))
(let ((.def_712 (or .def_685 .def_686)))
(let ((.def_670 (<= .def_669 0.0 )))
(let ((.def_711 (or .def_670 .def_677)))
(let ((.def_713 (and .def_711 .def_712)))
(let ((.def_720 (or .def_713 .def_719)))
(let ((.def_671 (not .def_670)))
(let ((.def_698 (or .def_671 .def_676)))
(let ((.def_697 (or .def_684 .def_687)))
(let ((.def_699 (and .def_697 .def_698)))
(let ((.def_710 (or .def_699 .def_709)))
(let ((.def_721 (and .def_710 .def_720)))
(let ((.def_696 (and .def_670 .def_676)))
(let ((.def_722 (and .def_696 .def_721)))
(let ((.def_731 (and .def_722 .def_730)))
(let ((.def_754 (or .def_731 .def_753)))
(let ((.def_613 (* b.delta__AT1 .def_612)))
(let ((.def_614 (* 50.0 .def_613)))
(let ((.def_609 (* b.delta__AT1 .def_608)))
(let ((.def_610 (* 25.0 .def_609)))
(let ((.def_622 (+ .def_610 .def_614)))
(let ((.def_606 (* .def_572 .def_605)))
(let ((.def_607 (* 50.0 .def_606)))
(let ((.def_623 (+ .def_607 .def_622)))
(let ((.def_624 (+ .def_618 .def_623)))
(let ((.def_625 (+ .def_616 .def_624)))
(let ((.def_626 (+ .def_620 .def_625)))
(let ((.def_643 (<= .def_626 0.0 )))
(let ((.def_644 (not .def_643)))
(let ((.def_691 (or .def_644 .def_645)))
(let ((.def_627 (<= 0.0 .def_626)))
(let ((.def_690 (or .def_627 .def_632)))
(let ((.def_692 (and .def_690 .def_691)))
(let ((.def_688 (or .def_685 .def_687)))
(let ((.def_689 (not .def_688)))
(let ((.def_693 (or .def_689 .def_692)))
(let ((.def_628 (not .def_627)))
(let ((.def_681 (or .def_628 .def_631)))
(let ((.def_680 (or .def_643 .def_646)))
(let ((.def_682 (and .def_680 .def_681)))
(let ((.def_678 (or .def_671 .def_677)))
(let ((.def_679 (not .def_678)))
(let ((.def_683 (or .def_679 .def_682)))
(let ((.def_694 (and .def_683 .def_693)))
(let ((.def_657 (and .def_627 .def_631)))
(let ((.def_695 (and .def_657 .def_694)))
(let ((.def_755 (and .def_695 .def_754)))
(let ((.def_840 (or .def_755 .def_839)))
(let ((.def_589 (* b.delta__AT1 .def_588)))
(let ((.def_590 (* 200.0 .def_589)))
(let ((.def_585 (* .def_572 .def_584)))
(let ((.def_586 (* 200.0 .def_585)))
(let ((.def_596 (+ .def_586 .def_590)))
(let ((.def_581 (* .def_452 .def_572)))
(let ((.def_582 (* 100.0 .def_581)))
(let ((.def_597 (+ .def_582 .def_596)))
(let ((.def_578 (* .def_573 .def_577)))
(let ((.def_579 (* 200.0 .def_578)))
(let ((.def_598 (+ .def_579 .def_597)))
(let ((.def_574 (* b.delta__AT1 .def_573)))
(let ((.def_575 (* 2401.0 .def_574)))
(let ((.def_599 (+ .def_575 .def_598)))
(let ((.def_570 (* b.speed_x__AT1 b.delta__AT1)))
(let ((.def_571 (* 100.0 .def_570)))
(let ((.def_600 (+ .def_571 .def_599)))
(let ((.def_558 (* b.y__AT1 b.y__AT1)))
(let ((.def_592 (* 100.0 .def_558)))
(let ((.def_601 (+ .def_592 .def_600)))
(let ((.def_594 (* 100.0 b.x__AT1)))
(let ((.def_602 (+ .def_594 .def_601)))
(let ((.def_637 (<= .def_602 0.0 )))
(let ((.def_651 (not .def_637)))
(let ((.def_559 (+ b.x__AT1 .def_558)))
(let ((.def_635 (<= .def_559 0.0 )))
(let ((.def_652 (or .def_635 .def_651)))
(let ((.def_560 (<= 0.0 .def_559)))
(let ((.def_649 (not .def_560)))
(let ((.def_603 (<= 0.0 .def_602)))
(let ((.def_650 (or .def_603 .def_649)))
(let ((.def_653 (and .def_650 .def_652)))
(let ((.def_647 (or .def_644 .def_646)))
(let ((.def_648 (not .def_647)))
(let ((.def_654 (or .def_648 .def_653)))
(let ((.def_639 (not .def_603)))
(let ((.def_640 (or .def_560 .def_639)))
(let ((.def_636 (not .def_635)))
(let ((.def_638 (or .def_636 .def_637)))
(let ((.def_641 (and .def_638 .def_640)))
(let ((.def_633 (or .def_628 .def_632)))
(let ((.def_634 (not .def_633)))
(let ((.def_642 (or .def_634 .def_641)))
(let ((.def_655 (and .def_642 .def_654)))
(let ((.def_604 (and .def_560 .def_603)))
(let ((.def_656 (and .def_604 .def_655)))
(let ((.def_841 (and .def_656 .def_840)))
(let ((.def_67 (<= b.speed_loss__AT0 (/ 1 2))))
(let ((.def_64 (<= (/ 1 10) b.speed_loss__AT0)))
(let ((.def_68 (and .def_64 .def_67)))
(let ((.def_842 (and .def_68 .def_841)))
(let ((.def_37 (not b.counter.0__AT0)))
(let ((.def_564 (or b.counter.1__AT0 .def_37)))
(let ((.def_40 (not b.counter.2__AT0)))
(let ((.def_565 (or .def_40 .def_564)))
(let ((.def_566 (or b.counter.3__AT0 .def_565)))
(let ((.def_561 (and .def_68 .def_560)))
(let ((.def_555 (not b.EVENT.0__AT1)))
(let ((.def_553 (not b.EVENT.1__AT1)))
(let ((.def_556 (or .def_553 .def_555)))
(let ((.def_458 (not b.counter.1__AT1)))
(let ((.def_4 (not b.counter.0__AT1)))
(let ((.def_546 (or .def_4 .def_458)))
(let ((.def_550 (or b.counter.3__AT1 .def_546)))
(let ((.def_547 (or b.counter.2__AT1 .def_546)))
(let ((.def_8 (not b.counter.2__AT1)))
(let ((.def_545 (or .def_4 .def_8)))
(let ((.def_548 (and .def_545 .def_547)))
(let ((.def_475 (not b.counter.3__AT1)))
(let ((.def_549 (or .def_475 .def_548)))
(let ((.def_551 (and .def_549 .def_550)))
(let ((.def_557 (and .def_551 .def_556)))
(let ((.def_562 (and .def_557 .def_561)))
(let ((.def_540 (<= 0.0 b.delta__AT0)))
(let ((.def_56 (not b.EVENT.0__AT0)))
(let ((.def_54 (not b.EVENT.1__AT0)))
(let ((.def_376 (and .def_54 .def_56)))
(let ((.def_378 (not .def_376)))
(let ((.def_541 (or .def_378 .def_540)))
(let ((.def_542 (or b.EVENT.1__AT0 .def_541)))
(let ((.def_417 (= b.bool_atom__AT0 b.bool_atom__AT1)))
(let ((.def_412 (= b.counter.0__AT1 b.counter.0__AT0)))
(let ((.def_410 (= b.counter.1__AT1 b.counter.1__AT0)))
(let ((.def_408 (= b.counter.2__AT1 b.counter.2__AT0)))
(let ((.def_407 (= b.counter.3__AT1 b.counter.3__AT0)))
(let ((.def_409 (and .def_407 .def_408)))
(let ((.def_411 (and .def_409 .def_410)))
(let ((.def_413 (and .def_411 .def_412)))
(let ((.def_536 (and .def_413 .def_417)))
(let ((.def_537 (or .def_378 .def_536)))
(let ((.def_538 (or b.EVENT.1__AT0 .def_537)))
(let ((.def_518 (* b.speed_y__AT0 b.delta__AT0)))
(let ((.def_519 (* 10.0 .def_518)))
(let ((.def_523 (* (- 10.0) b.y__AT1)))
(let ((.def_527 (+ .def_523 .def_519)))
(let ((.def_77 (* b.delta__AT0 b.delta__AT0)))
(let ((.def_520 (* (- 49.0) .def_77)))
(let ((.def_528 (+ .def_520 .def_527)))
(let ((.def_525 (* 10.0 b.y__AT0)))
(let ((.def_529 (+ .def_525 .def_528)))
(let ((.def_530 (= .def_529 0.0 )))
(let ((.def_513 (* (- 5.0) b.speed_y__AT1)))
(let ((.def_223 (* (- 49.0) b.delta__AT0)))
(let ((.def_514 (+ .def_223 .def_513)))
(let ((.def_224 (* 5.0 b.speed_y__AT0)))
(let ((.def_515 (+ .def_224 .def_514)))
(let ((.def_516 (= .def_515 0.0 )))
(let ((.def_509 (* (- 1.0) b.x__AT1)))
(let ((.def_74 (* b.speed_x__AT0 b.delta__AT0)))
(let ((.def_510 (+ .def_74 .def_509)))
(let ((.def_511 (+ b.x__AT0 .def_510)))
(let ((.def_512 (= .def_511 0.0 )))
(let ((.def_517 (and .def_512 .def_516)))
(let ((.def_531 (and .def_517 .def_530)))
(let ((.def_402 (= b.speed_x__AT0 b.speed_x__AT1)))
(let ((.def_532 (and .def_402 .def_531)))
(let ((.def_533 (or .def_378 .def_532)))
(let ((.def_399 (= b.y__AT0 b.y__AT1)))
(let ((.def_396 (= b.x__AT0 b.x__AT1)))
(let ((.def_503 (and .def_396 .def_399)))
(let ((.def_504 (and .def_402 .def_503)))
(let ((.def_405 (= b.speed_y__AT0 b.speed_y__AT1)))
(let ((.def_505 (and .def_405 .def_504)))
(let ((.def_500 (= b.delta__AT0 0.0 )))
(let ((.def_501 (and .def_376 .def_500)))
(let ((.def_502 (not .def_501)))
(let ((.def_506 (or .def_502 .def_505)))
(let ((.def_507 (or b.EVENT.1__AT0 .def_506)))
(let ((.def_492 (and .def_402 .def_405)))
(let ((.def_493 (and .def_413 .def_492)))
(let ((.def_494 (or b.bool_atom__AT0 .def_493)))
(let ((.def_467 (or .def_4 b.counter.0__AT0)))
(let ((.def_466 (or b.counter.0__AT1 .def_37)))
(let ((.def_468 (and .def_466 .def_467)))
(let ((.def_469 (and .def_458 .def_468)))
(let ((.def_470 (or b.counter.1__AT0 .def_469)))
(let ((.def_35 (not b.counter.1__AT0)))
(let ((.def_465 (or b.counter.1__AT1 .def_35)))
(let ((.def_471 (and .def_465 .def_470)))
(let ((.def_483 (and .def_8 .def_471)))
(let ((.def_484 (or b.counter.2__AT0 .def_483)))
(let ((.def_478 (and .def_37 .def_458)))
(let ((.def_479 (or b.counter.1__AT0 .def_478)))
(let ((.def_480 (and .def_465 .def_479)))
(let ((.def_481 (and b.counter.2__AT1 .def_480)))
(let ((.def_482 (or .def_40 .def_481)))
(let ((.def_485 (and .def_482 .def_484)))
(let ((.def_486 (and b.counter.3__AT1 .def_485)))
(let ((.def_487 (or b.counter.3__AT0 .def_486)))
(let ((.def_472 (and b.counter.2__AT1 .def_471)))
(let ((.def_473 (or b.counter.2__AT0 .def_472)))
(let ((.def_461 (or b.counter.1__AT1 b.counter.1__AT0)))
(let ((.def_459 (and b.counter.0__AT1 .def_458)))
(let ((.def_460 (or .def_35 .def_459)))
(let ((.def_462 (and .def_460 .def_461)))
(let ((.def_463 (and .def_8 .def_462)))
(let ((.def_464 (or .def_40 .def_463)))
(let ((.def_474 (and .def_464 .def_473)))
(let ((.def_476 (and .def_474 .def_475)))
(let ((.def_43 (not b.counter.3__AT0)))
(let ((.def_477 (or .def_43 .def_476)))
(let ((.def_488 (and .def_477 .def_487)))
(let ((.def_447 (* b.speed_x__AT0 b.speed_x__AT0)))
(let ((.def_91 (* b.speed_y__AT0 b.speed_y__AT0)))
(let ((.def_448 (+ .def_91 .def_447)))
(let ((.def_433 (* (- 1.0) b.speed_loss__AT0)))
(let ((.def_434 (+ 1.0 .def_433)))
(let ((.def_446 (* .def_434 .def_434)))
(let ((.def_449 (* .def_446 .def_448)))
(let ((.def_450 (* (- 1.0) .def_449)))
(let ((.def_454 (+ .def_450 .def_452)))
(let ((.def_445 (* b.speed_x__AT1 b.speed_x__AT1)))
(let ((.def_455 (+ .def_445 .def_454)))
(let ((.def_456 (= .def_455 0.0 )))
(let ((.def_423 (* 2.0 b.y__AT0)))
(let ((.def_437 (* .def_423 .def_434)))
(let ((.def_438 (* b.speed_y__AT0 .def_437)))
(let ((.def_435 (* b.speed_x__AT0 .def_434)))
(let ((.def_441 (+ .def_435 .def_438)))
(let ((.def_431 (* 2.0 b.y__AT1)))
(let ((.def_432 (* b.speed_y__AT1 .def_431)))
(let ((.def_442 (+ .def_432 .def_441)))
(let ((.def_443 (+ b.speed_x__AT1 .def_442)))
(let ((.def_444 (= .def_443 0.0 )))
(let ((.def_457 (and .def_444 .def_456)))
(let ((.def_489 (and .def_457 .def_488)))
(let ((.def_430 (not b.bool_atom__AT0)))
(let ((.def_490 (or .def_430 .def_489)))
(let ((.def_424 (* b.speed_y__AT0 .def_423)))
(let ((.def_425 (+ b.speed_x__AT0 .def_424)))
(let ((.def_426 (<= 0.0 .def_425)))
(let ((.def_427 (not .def_426)))
(let ((.def_59 (* b.y__AT0 b.y__AT0)))
(let ((.def_60 (+ b.x__AT0 .def_59)))
(let ((.def_422 (= .def_60 0.0 )))
(let ((.def_428 (and .def_422 .def_427)))
(let ((.def_429 (= b.bool_atom__AT0 .def_428)))
(let ((.def_491 (and .def_429 .def_490)))
(let ((.def_495 (and .def_491 .def_494)))
(let ((.def_496 (and .def_396 .def_495)))
(let ((.def_497 (and .def_399 .def_496)))
(let ((.def_498 (or .def_376 .def_497)))
(let ((.def_499 (or b.EVENT.1__AT0 .def_498)))
(let ((.def_508 (and .def_499 .def_507)))
(let ((.def_534 (and .def_508 .def_533)))
(let ((.def_383 (= b.time__AT0 b.time__AT1)))
(let ((.def_397 (and .def_383 .def_396)))
(let ((.def_400 (and .def_397 .def_399)))
(let ((.def_403 (and .def_400 .def_402)))
(let ((.def_406 (and .def_403 .def_405)))
(let ((.def_414 (and .def_406 .def_413)))
(let ((.def_418 (and .def_414 .def_417)))
(let ((.def_419 (or .def_54 .def_418)))
(let ((.def_386 (* (- 1.0) b.time__AT1)))
(let ((.def_389 (+ b.delta__AT0 .def_386)))
(let ((.def_390 (+ b.time__AT0 .def_389)))
(let ((.def_391 (= .def_390 0.0 )))
(let ((.def_392 (or .def_378 .def_391)))
(let ((.def_393 (or b.EVENT.1__AT0 .def_392)))
(let ((.def_384 (or .def_376 .def_383)))
(let ((.def_385 (or b.EVENT.1__AT0 .def_384)))
(let ((.def_394 (and .def_385 .def_393)))
(let ((.def_420 (and .def_394 .def_419)))
(let ((.def_380 (= .def_378 b.event_is_timed__AT1)))
(let ((.def_377 (= b.event_is_timed__AT0 .def_376)))
(let ((.def_381 (and .def_377 .def_380)))
(let ((.def_421 (and .def_381 .def_420)))
(let ((.def_535 (and .def_421 .def_534)))
(let ((.def_539 (and .def_535 .def_538)))
(let ((.def_543 (and .def_539 .def_542)))
(let ((.def_544 (and .def_54 .def_543)))
(let ((.def_563 (and .def_544 .def_562)))
(let ((.def_567 (and .def_563 .def_566)))
(let ((.def_86 (* (- (/ 49 10)) b.speed_y__AT0)))
(let ((.def_117 (* 3.0 .def_86)))
(let ((.def_281 (* (- 1.0) .def_117)))
(let ((.def_303 (* 2.0 .def_281)))
(let ((.def_345 (* (- 1.0) .def_303)))
(let ((.def_346 (* b.delta__AT0 .def_345)))
(let ((.def_347 (* (- 50.0) .def_346)))
(let ((.def_180 (* (- 50.0) .def_91)))
(let ((.def_351 (+ .def_180 .def_347)))
(let ((.def_178 (* (- 7203.0) .def_77)))
(let ((.def_352 (+ .def_178 .def_351)))
(let ((.def_183 (* 490.0 b.y__AT0)))
(let ((.def_353 (+ .def_183 .def_352)))
(let ((.def_356 (<= 0.0 .def_353)))
(let ((.def_363 (not .def_356)))
(let ((.def_192 (* (- 5.0) .def_91)))
(let ((.def_193 (* 49.0 b.y__AT0)))
(let ((.def_195 (+ .def_193 .def_192)))
(let ((.def_206 (<= 0.0 .def_195)))
(let ((.def_364 (or .def_206 .def_363)))
(let ((.def_354 (<= .def_353 0.0 )))
(let ((.def_196 (<= .def_195 0.0 )))
(let ((.def_197 (not .def_196)))
(let ((.def_362 (or .def_197 .def_354)))
(let ((.def_365 (and .def_362 .def_364)))
(let ((.def_237 (<= 0.0 b.speed_y__AT0)))
(let ((.def_238 (not .def_237)))
(let ((.def_226 (+ .def_224 .def_223)))
(let ((.def_235 (<= 0.0 .def_226)))
(let ((.def_236 (not .def_235)))
(let ((.def_239 (or .def_236 .def_238)))
(let ((.def_240 (not .def_239)))
(let ((.def_366 (or .def_240 .def_365)))
(let ((.def_358 (not .def_354)))
(let ((.def_359 (or .def_196 .def_358)))
(let ((.def_207 (not .def_206)))
(let ((.def_357 (or .def_207 .def_356)))
(let ((.def_360 (and .def_357 .def_359)))
(let ((.def_227 (<= .def_226 0.0 )))
(let ((.def_228 (not .def_227)))
(let ((.def_220 (<= b.speed_y__AT0 0.0 )))
(let ((.def_221 (not .def_220)))
(let ((.def_229 (or .def_221 .def_228)))
(let ((.def_230 (not .def_229)))
(let ((.def_361 (or .def_230 .def_360)))
(let ((.def_367 (and .def_361 .def_366)))
(let ((.def_355 (and .def_196 .def_354)))
(let ((.def_368 (and .def_355 .def_367)))
(let ((.def_249 (and .def_235 .def_237)))
(let ((.def_246 (or .def_236 .def_237)))
(let ((.def_245 (or .def_221 .def_227)))
(let ((.def_247 (and .def_245 .def_246)))
(let ((.def_250 (and .def_247 .def_249)))
(let ((.def_244 (and .def_220 .def_227)))
(let ((.def_248 (and .def_244 .def_247)))
(let ((.def_251 (or .def_248 .def_250)))
(let ((.def_369 (and .def_251 .def_368)))
(let ((.def_304 (* b.delta__AT0 .def_303)))
(let ((.def_305 (* 50.0 .def_304)))
(let ((.def_309 (+ .def_180 .def_305)))
(let ((.def_310 (+ .def_178 .def_309)))
(let ((.def_311 (+ .def_183 .def_310)))
(let ((.def_322 (<= .def_311 0.0 )))
(let ((.def_323 (not .def_322)))
(let ((.def_339 (or .def_196 .def_323)))
(let ((.def_312 (<= 0.0 .def_311)))
(let ((.def_338 (or .def_207 .def_312)))
(let ((.def_340 (and .def_338 .def_339)))
(let ((.def_341 (or .def_230 .def_340)))
(let ((.def_313 (not .def_312)))
(let ((.def_335 (or .def_206 .def_313)))
(let ((.def_334 (or .def_197 .def_322)))
(let ((.def_336 (and .def_334 .def_335)))
(let ((.def_337 (or .def_240 .def_336)))
(let ((.def_342 (and .def_337 .def_341)))
(let ((.def_333 (and .def_206 .def_312)))
(let ((.def_343 (and .def_333 .def_342)))
(let ((.def_344 (and .def_251 .def_343)))
(let ((.def_370 (or .def_344 .def_369)))
(let ((.def_95 (* (- (/ 49 10)) b.y__AT0)))
(let ((.def_126 (* 2.0 .def_95)))
(let ((.def_290 (* (- 1.0) .def_126)))
(let ((.def_291 (* b.delta__AT0 .def_290)))
(let ((.def_292 (* (- 50.0) .def_291)))
(let ((.def_121 (* 2.0 .def_91)))
(let ((.def_285 (* (- 1.0) .def_121)))
(let ((.def_286 (* b.delta__AT0 .def_285)))
(let ((.def_288 (* (- 25.0) .def_286)))
(let ((.def_296 (+ .def_288 .def_292)))
(let ((.def_282 (* .def_77 .def_281)))
(let ((.def_283 (* (- 50.0) .def_282)))
(let ((.def_297 (+ .def_283 .def_296)))
(let ((.def_99 (* b.y__AT0 b.speed_y__AT0)))
(let ((.def_132 (* 50.0 .def_99)))
(let ((.def_298 (+ .def_132 .def_297)))
(let ((.def_78 (* b.delta__AT0 .def_77)))
(let ((.def_130 (* 2401.0 .def_78)))
(let ((.def_299 (+ .def_130 .def_298)))
(let ((.def_134 (* 25.0 b.speed_x__AT0)))
(let ((.def_300 (+ .def_134 .def_299)))
(let ((.def_316 (<= 0.0 .def_300)))
(let ((.def_327 (not .def_316)))
(let ((.def_143 (* 2.0 .def_99)))
(let ((.def_144 (+ b.speed_x__AT0 .def_143)))
(let ((.def_145 (<= 0.0 .def_144)))
(let ((.def_328 (or .def_145 .def_327)))
(let ((.def_301 (<= .def_300 0.0 )))
(let ((.def_159 (<= .def_144 0.0 )))
(let ((.def_160 (not .def_159)))
(let ((.def_326 (or .def_160 .def_301)))
(let ((.def_329 (and .def_326 .def_328)))
(let ((.def_324 (or .def_197 .def_323)))
(let ((.def_325 (not .def_324)))
(let ((.def_330 (or .def_325 .def_329)))
(let ((.def_318 (not .def_301)))
(let ((.def_319 (or .def_159 .def_318)))
(let ((.def_146 (not .def_145)))
(let ((.def_317 (or .def_146 .def_316)))
(let ((.def_320 (and .def_317 .def_319)))
(let ((.def_314 (or .def_207 .def_313)))
(let ((.def_315 (not .def_314)))
(let ((.def_321 (or .def_315 .def_320)))
(let ((.def_331 (and .def_321 .def_330)))
(let ((.def_302 (and .def_159 .def_301)))
(let ((.def_332 (and .def_302 .def_331)))
(let ((.def_371 (and .def_332 .def_370)))
(let ((.def_172 (* 2.0 .def_117)))
(let ((.def_254 (* (- 1.0) .def_172)))
(let ((.def_255 (* b.delta__AT0 .def_254)))
(let ((.def_256 (* 50.0 .def_255)))
(let ((.def_260 (+ .def_180 .def_256)))
(let ((.def_261 (+ .def_178 .def_260)))
(let ((.def_262 (+ .def_183 .def_261)))
(let ((.def_265 (<= .def_262 0.0 )))
(let ((.def_272 (not .def_265)))
(let ((.def_273 (or .def_196 .def_272)))
(let ((.def_263 (<= 0.0 .def_262)))
(let ((.def_271 (or .def_207 .def_263)))
(let ((.def_274 (and .def_271 .def_273)))
(let ((.def_275 (or .def_230 .def_274)))
(let ((.def_267 (not .def_263)))
(let ((.def_268 (or .def_206 .def_267)))
(let ((.def_266 (or .def_197 .def_265)))
(let ((.def_269 (and .def_266 .def_268)))
(let ((.def_270 (or .def_240 .def_269)))
(let ((.def_276 (and .def_270 .def_275)))
(let ((.def_264 (and .def_206 .def_263)))
(let ((.def_277 (and .def_264 .def_276)))
(let ((.def_278 (and .def_251 .def_277)))
(let ((.def_173 (* b.delta__AT0 .def_172)))
(let ((.def_175 (* (- 50.0) .def_173)))
(let ((.def_185 (+ .def_180 .def_175)))
(let ((.def_186 (+ .def_178 .def_185)))
(let ((.def_187 (+ .def_183 .def_186)))
(let ((.def_204 (<= 0.0 .def_187)))
(let ((.def_205 (not .def_204)))
(let ((.def_233 (or .def_205 .def_206)))
(let ((.def_188 (<= .def_187 0.0 )))
(let ((.def_232 (or .def_188 .def_197)))
(let ((.def_234 (and .def_232 .def_233)))
(let ((.def_241 (or .def_234 .def_240)))
(let ((.def_189 (not .def_188)))
(let ((.def_218 (or .def_189 .def_196)))
(let ((.def_217 (or .def_204 .def_207)))
(let ((.def_219 (and .def_217 .def_218)))
(let ((.def_231 (or .def_219 .def_230)))
(let ((.def_242 (and .def_231 .def_241)))
(let ((.def_216 (and .def_188 .def_196)))
(let ((.def_243 (and .def_216 .def_242)))
(let ((.def_252 (and .def_243 .def_251)))
(let ((.def_279 (or .def_252 .def_278)))
(let ((.def_127 (* b.delta__AT0 .def_126)))
(let ((.def_128 (* 50.0 .def_127)))
(let ((.def_122 (* b.delta__AT0 .def_121)))
(let ((.def_124 (* 25.0 .def_122)))
(let ((.def_136 (+ .def_124 .def_128)))
(let ((.def_118 (* .def_77 .def_117)))
(let ((.def_120 (* 50.0 .def_118)))
(let ((.def_137 (+ .def_120 .def_136)))
(let ((.def_138 (+ .def_132 .def_137)))
(let ((.def_139 (+ .def_130 .def_138)))
(let ((.def_140 (+ .def_134 .def_139)))
(let ((.def_157 (<= .def_140 0.0 )))
(let ((.def_158 (not .def_157)))
(let ((.def_211 (or .def_158 .def_159)))
(let ((.def_141 (<= 0.0 .def_140)))
(let ((.def_210 (or .def_141 .def_146)))
(let ((.def_212 (and .def_210 .def_211)))
(let ((.def_208 (or .def_205 .def_207)))
(let ((.def_209 (not .def_208)))
(let ((.def_213 (or .def_209 .def_212)))
(let ((.def_142 (not .def_141)))
(let ((.def_201 (or .def_142 .def_145)))
(let ((.def_200 (or .def_157 .def_160)))
(let ((.def_202 (and .def_200 .def_201)))
(let ((.def_198 (or .def_189 .def_197)))
(let ((.def_199 (not .def_198)))
(let ((.def_203 (or .def_199 .def_202)))
(let ((.def_214 (and .def_203 .def_213)))
(let ((.def_171 (and .def_141 .def_145)))
(let ((.def_215 (and .def_171 .def_214)))
(let ((.def_280 (and .def_215 .def_279)))
(let ((.def_372 (or .def_280 .def_371)))
(let ((.def_100 (* b.delta__AT0 .def_99)))
(let ((.def_101 (* 200.0 .def_100)))
(let ((.def_96 (* .def_77 .def_95)))
(let ((.def_97 (* 200.0 .def_96)))
(let ((.def_107 (+ .def_97 .def_101)))
(let ((.def_92 (* .def_77 .def_91)))
(let ((.def_93 (* 100.0 .def_92)))
(let ((.def_108 (+ .def_93 .def_107)))
(let ((.def_87 (* .def_78 .def_86)))
(let ((.def_89 (* 200.0 .def_87)))
(let ((.def_109 (+ .def_89 .def_108)))
(let ((.def_79 (* b.delta__AT0 .def_78)))
(let ((.def_81 (* 2401.0 .def_79)))
(let ((.def_110 (+ .def_81 .def_109)))
(let ((.def_76 (* 100.0 .def_74)))
(let ((.def_111 (+ .def_76 .def_110)))
(let ((.def_103 (* 100.0 .def_59)))
(let ((.def_112 (+ .def_103 .def_111)))
(let ((.def_105 (* 100.0 b.x__AT0)))
(let ((.def_113 (+ .def_105 .def_112)))
(let ((.def_151 (<= .def_113 0.0 )))
(let ((.def_165 (not .def_151)))
(let ((.def_149 (<= .def_60 0.0 )))
(let ((.def_166 (or .def_149 .def_165)))
(let ((.def_61 (<= 0.0 .def_60)))
(let ((.def_163 (not .def_61)))
(let ((.def_114 (<= 0.0 .def_113)))
(let ((.def_164 (or .def_114 .def_163)))
(let ((.def_167 (and .def_164 .def_166)))
(let ((.def_161 (or .def_158 .def_160)))
(let ((.def_162 (not .def_161)))
(let ((.def_168 (or .def_162 .def_167)))
(let ((.def_153 (not .def_114)))
(let ((.def_154 (or .def_61 .def_153)))
(let ((.def_150 (not .def_149)))
(let ((.def_152 (or .def_150 .def_151)))
(let ((.def_155 (and .def_152 .def_154)))
(let ((.def_147 (or .def_142 .def_146)))
(let ((.def_148 (not .def_147)))
(let ((.def_156 (or .def_148 .def_155)))
(let ((.def_169 (and .def_156 .def_168)))
(let ((.def_115 (and .def_61 .def_114)))
(let ((.def_170 (and .def_115 .def_169)))
(let ((.def_373 (and .def_170 .def_372)))
(let ((.def_374 (and .def_68 .def_373)))
(let ((.def_69 (and .def_61 .def_68)))
(let ((.def_57 (or .def_54 .def_56)))
(let ((.def_47 (or .def_35 .def_37)))
(let ((.def_51 (or b.counter.3__AT0 .def_47)))
(let ((.def_48 (or b.counter.2__AT0 .def_47)))
(let ((.def_46 (or .def_37 .def_40)))
(let ((.def_49 (and .def_46 .def_48)))
(let ((.def_50 (or .def_43 .def_49)))
(let ((.def_52 (and .def_50 .def_51)))
(let ((.def_58 (and .def_52 .def_57)))
(let ((.def_70 (and .def_58 .def_69)))
(let ((.def_38 (and .def_35 .def_37)))
(let ((.def_41 (and .def_38 .def_40)))
(let ((.def_44 (and .def_41 .def_43)))
(let ((.def_32 (= b.speed_y__AT0 1.0 )))
(let ((.def_29 (= b.speed_x__AT0 1.0 )))
(let ((.def_25 (= b.y__AT0 10.0 )))
(let ((.def_21 (= b.x__AT0 (- 9.0) )))
(let ((.def_15 (= b.time__AT0 0.0 )))
(let ((.def_17 (and .def_15 b.event_is_timed__AT0)))
(let ((.def_22 (and .def_17 .def_21)))
(let ((.def_26 (and .def_22 .def_25)))
(let ((.def_30 (and .def_26 .def_29)))
(let ((.def_33 (and .def_30 .def_32)))
(let ((.def_45 (and .def_33 .def_44)))
(let ((.def_71 (and .def_45 .def_70)))
(let ((.def_6 (or .def_4 b.counter.1__AT1)))
(let ((.def_9 (or .def_6 .def_8)))
(let ((.def_11 (or .def_9 b.counter.3__AT1)))
(let ((.def_12 (not .def_11)))
(let ((.def_72 (and .def_12 .def_71)))
(let ((.def_375 (and .def_72 .def_374)))
(let ((.def_568 (and .def_375 .def_567)))
(let ((.def_843 (and .def_568 .def_842)))
.def_843)))))))))))))))))))))))))))))))))))))))))))))))))))))))))))))))))))))))))))))))))))))))))))))))))))))))))))))))))))))))))))))))))))))))))))))))))))))))))))))))))))))))))))))))))))))))))))))))))))))))))))))))))))))))))))))))))))))))))))))))))))))))))))))))))))))))))))))))))))))))))))))))))))))))))))))))))))))))))))))))))))))))))))))))))))))))))))))))))))))))))))))))))))))))))))))))))))))))))))))))))))))))))))))))))))))))))))))))))))))))))))))))))))))))))))))))))))))))))))))))))))))))))))))))))))))))))))))))))))))))))))))))))))))))))))))))))))))))))))))))))))))))))))))))))))))))))))))))))))))))))))))))))))))))))))))))))))))))))))))))))))))))))))))))))))))))))))))))))))))))))))))))))))))))))))))))))))))))))))))))))))
(check-sat)
(exit)
